clingo version 5.4.0
Reading from warehouseScenario.lp ...
Solving...
Answer: 1
object(shelf,shelly) object(robot,1) object(robot,2) object(shelf,1) object(shelf,2) object(shelf,3) object(shelf,4) object(shelf,5) object(shelf,6) at(object(robot,1),4,3,0) at(object(robot,2),2,2,0) at(object(shelf,1),3,3,0) at(object(shelf,2),2,1,0) at(object(shelf,3),2,3,0) at(object(shelf,4),2,2,0) at(object(shelf,5),3,2,0) at(object(shelf,6),1,2,0) order(1,2,1,0) order(2,4,1,0) on(1,shelf,3,1,0) on(2,shelf,4,1,0) on(3,shelf,6,4,0) on(4,shelf,5,1,0) on(4,shelf,6,1,0) occurs(object(robot,1),move(0,-1),1) occurs(object(robot,2),move(1,0),1) occurs(object(robot,1),move(-1,0),2) occurs(object(robot,2),move(0,1),2) at(object(shelf,6),1,2,1) at(object(shelf,5),3,2,1) at(object(shelf,4),2,2,1) at(object(shelf,3),2,3,1) at(object(shelf,2),2,1,1) at(object(shelf,1),3,3,1) at(object(robot,2),3,2,1) at(object(robot,1),4,2,1) at(object(shelf,1),3,3,2) at(object(shelf,2),2,1,2) at(object(shelf,3),2,3,2) at(object(shelf,4),2,2,2) at(object(shelf,5),3,2,2) at(object(shelf,6),1,2,2) at(object(robot,1),3,2,2) at(object(robot,2),3,3,2) at(object(shelf,4),2,2,3) at(object(shelf,5),3,2,3) at(object(shelf,3),2,3,3) at(object(shelf,2),2,1,3) at(object(shelf,6),1,2,3) at(object(shelf,1),3,3,3) at(object(robot,2),3,3,3) at(object(robot,1),3,2,3) occurs(object(robot,2),pkup,3) occurs(object(robot,1),pkup,3) at(object(robot,1),3,2,4) at(object(robot,2),3,3,4) at(object(shelf,1),3,3,4) at(object(shelf,6),1,2,4) at(object(shelf,2),2,1,4) at(object(shelf,3),2,3,4) at(object(shelf,5),3,2,4) at(object(shelf,4),2,2,4) at(object(shelf,2),2,1,5) at(object(shelf,6),1,2,5) at(object(shelf,5),3,2,5) at(object(shelf,3),2,3,5) at(object(shelf,1),3,3,5) at(object(shelf,4),2,2,5) at(object(robot,2),3,3,5) at(object(robot,1),3,2,5) at(object(robot,1),3,2,6) at(object(robot,2),3,3,6) at(object(shelf,4),2,2,6) at(object(shelf,1),3,3,6) at(object(shelf,3),2,3,6) at(object(shelf,5),3,2,6) at(object(shelf,6),1,2,6) at(object(shelf,2),2,1,6) at(object(shelf,4),2,2,7) at(object(shelf,1),3,3,7) at(object(shelf,5),3,2,7) at(object(shelf,2),2,1,7) at(object(shelf,3),2,3,7) at(object(shelf,6),1,2,7) at(object(robot,2),3,3,7) at(object(robot,1),3,2,7) order(2,4,1,1) order(1,2,1,1) order(1,2,1,2) order(2,4,1,2) order(2,4,1,3) order(1,2,1,3) order(1,2,1,4) order(2,4,1,4) order(2,4,1,5) order(1,2,1,5) order(1,2,1,6) order(2,4,1,6) order(2,4,1,7) order(1,2,1,7)
SATISFIABLE

Models       : 1+
Calls        : 1
Time         : 0.148s (Solving: 0.01s 1st Model: 0.01s Unsat: 0.00s)
CPU Time     : 0.151s
Threads      : 2        (Winner: 1)
